(set-option :produce-models true)
(set-logic QF_UF)
(declare-fun p8() Bool)
(declare-fun p19() Bool)
(declare-fun p26() Bool)
(declare-fun p0() Bool)
(declare-fun p11() Bool)
(declare-fun p17() Bool)
(declare-fun p27() Bool)
(declare-fun p1() Bool)
(declare-fun p20() Bool)
(declare-fun p18() Bool)
(declare-fun p24() Bool)
(declare-fun p4() Bool)
(declare-fun p2() Bool)
(declare-fun p15() Bool)
(declare-fun p22() Bool)
(declare-fun p7() Bool)
(declare-fun p23() Bool)
(declare-fun p29() Bool)
(declare-fun p14() Bool)
(declare-fun p10() Bool)
(declare-fun p12() Bool)
(declare-fun p16() Bool)
(declare-fun p21() Bool)
(declare-fun p5() Bool)
(declare-fun p3() Bool)
(declare-fun p28() Bool)
(declare-fun p25() Bool)
(declare-fun p13() Bool)
(declare-fun p9() Bool)
(declare-fun p6() Bool)
(assert
(and (or (not p8) p19 (not p8)) (or (not p26) p0 (not p11)) (or p17 (not p27) p1) (or (not p8) (not p20) (not p18)) (or (not p1) (not p8) p24) (or p26 p4 (not p0)) (or (not p2) (not p15) (not p22)) (or p7 (not p7) p18) (or p23 p15 p19) (or (not p19) (not p29) p19) (or p14 (not p10) p12) (or p17 (not p16) (not p21)) (or p5 (not p22) p3) (or p0 p16 (not p26)) (or (not p5) p8 (not p8)) (or p29 p4 (not p22)) (or (not p5) (not p22) (not p26)) (or (not p1) p28 p0) (or p8 p16 p26) (or p10 p23 (not p10)) (or (not p14) p17 p4) (or (not p29) (not p5) p5) (or p7 p25 (not p3)) (or p10 (not p8) p23) (or p20 (not p4) (not p19)) (or p18 p15 p0) (or p17 (not p27) p21) (or (not p29) (not p16) p16) (or (not p8) (not p27) p7) (or p1 (not p8) (not p2)) (or (not p24) (not p3) p0) (or p2 (not p8) (not p2)) (or (not p20) p15 p11) (or p1 p18 (not p13)) (or p2 p25 p0) (or p3 p24 (not p15)) (or p27 p3 (not p16)) (or (not p9) (not p17) p12) (or p26 (not p7) p7) (or (not p22) p19 p11) (or p25 (not p5) p7) (or p21 (not p23) p2) (or p9 (not p0) p3) (or (not p27) (not p19) (not p11)) (or (not p28) p3 p11) (or p24 (not p26) (not p13)) (or p21 p4 p27) (or (not p9) p5 p16) (or (not p3) (not p22) p29) (or p19 (not p29) p23) (or (not p10) (not p0) (not p24)) (or (not p10) p23 (not p25)) (or p14 p17 (not p0)) (or p11 p1 (not p14)) (or (not p17) p26 (not p26)) (or p16 p27 (not p26)) (or p17 p13 (not p17)) (or p9 p6 (not p23)) (or p29 p12 (not p26)) (or p23 (not p27) p27) (or (not p19) p27 (not p3)) (or p0 p9 (not p9)) (or p20 p10 (not p28)) (or (not p4) p22 p27) (or (not p18) (not p13) (not p27)) (or (not p23) (not p24) p29) (or p24 (not p12) p29) (or p0 (not p12) (not p8)) (or p8 p6 p12) (or (not p17) (not p9) (not p8)) (or p23 (not p13) p28) (or p23 p28 p6) (or p3 (not p8) p12) (or p8 (not p14) (not p17)) (or p28 (not p6) p3) (or (not p25) (not p6) p27) (or (not p23) p24 p2) (or p12 (not p22) (not p6)) (or (not p27) (not p21) p5) (or p10 (not p10) (not p5)) (or p14 (not p25) (not p26)) (or (not p13) p29 p10) (or (not p16) p12 p19) (or (not p29) p25 p21) (or p3 p27 (not p3)) (or p11 (not p13) (not p1)) (or p9 (not p1) p11) (or p28 (not p28) (not p16)) (or p8 (not p13) (not p11)) (or p10 (not p12) (not p29)) (or p25 p15 (not p18)) (or (not p23) p5 p19) (or (not p15) p8 (not p13)) (or p29 (not p28) p23) (or p10 (not p17) p4) (or p25 p19 (not p23)) (or (not p13) (not p9) p13) (or p29 p18 (not p10)) (or (not p4) (not p13) p21) (or (not p0) (not p1) (not p27)) (or p9 (not p9) (not p4)) (or p7 (not p20) (not p21)) (or (not p4) p4 (not p23)) (or (not p7) p19 (not p15)) (or (not p5) p6 p3) (or p9 p1 p2) (or (not p21) (not p20) p2) (or (not p28) (not p26) p13) (or p16 p1 (not p4)) (or (not p20) p26 (not p23)) (or p6 (not p6) (not p24)) (or (not p13) p12 p5) (or (not p24) (not p0) p29) (or p25 (not p7) p5) (or (not p7) p28 p25) (or p1 (not p14) (not p23)) (or (not p1) p25 p22) (or (not p16) p21 (not p4)) (or (not p28) p18 p4) (or (not p21) (not p21) p6) (or p24 (not p21) (not p26)) (or p12 p18 (not p8)) (or p8 p1 p25) (or (not p21) p29 p26) (or p5 p6 (not p17)) (or p25 p27 p15) (or (not p4) p5 (not p16)) (or (not p11) p10 p20))
)
(check-sat)
(get-model)
